p cnf 15 47
1 9 -11 0
5 7 -8 0
-4 -10 -12 0
9 -12 -15 0
-4 -8 -15 0
11 13 15 0
1 -10 12 0
1 5 8 0
2 -7 10 0
3 10 11 0
-1 8 -12 0
2 3 12 0
3 -5 -12 0
-4 -9 10 0
3 9 14 0
-5 -13 14 0
5 -13 -14 0
-8 9 -12 0
8 -13 -15 0
-8 -10 14 0
1 4 -5 0
-10 -12 -13 0
-6 -7 -12 0
-1 5 9 0
-6 -9 15 0
-1 -10 -14 0
4 -9 -14 0
2 -3 8 0
-2 11 -15 0
1 6 11 0
-4 6 10 0
3 10 12 0
-1 6 7 0
-9 -10 -15 0
-4 8 -9 0
1 -4 -12 0
1 2 8 0
-9 -10 14 0
2 3 15 0
-4 -5 -13 0
-4 -6 -9 0
-4 -9 14 0
7 12 -15 0
-4 -7 9 0
-6 -11 -15 0
-5 9 13 0
-1 2 10 0
